db/inputs/2692418806256171234615850207391647827687.smt2
(set-logic QF_FP)
(declare-const x0 (_ FloatingPoint 8 24))
(declare-const x1 (_ FloatingPoint 8 24))
(declare-const x2 (_ FloatingPoint 8 24))
(declare-const x3 (_ FloatingPoint 8 24))
(declare-const x4 (_ FloatingPoint 8 24))
(declare-const x5 (_ FloatingPoint 8 24))
(declare-const x6 (_ FloatingPoint 8 24))
(declare-const x7 (_ FloatingPoint 8 24))
(declare-const x8 (_ FloatingPoint 8 24))
(declare-const x9 (_ FloatingPoint 8 24))
(declare-const x10 (_ FloatingPoint 8 24))
(assert (fp.lt (fp.div RNE x3 x9) (fp.neg x10)))
(assert (fp.leq (fp.add RNE x1 x6) (fp.neg x6)))
(assert (fp.eq (fp.add RNE x0 x6) (fp.div RNE x0 x10)))
(assert (fp.lt (fp.sub RNE x5 x10) (fp.sub RNE x3 x9)))
(assert (fp.lt (fp.mul RNE x6 x8) (fp.add RNE x6 x10)))
(check-sat)
