db/data/2692418806256171234615850207391647827687.z3.out
sat
-------------------
16.115098569
